126
0 29 47 38 64 68 69 66 31 59 
79 124 81 88 92 62 58 112 21 115 
119 55 6 76 9 75 52 85 63 15 
12 86 107 104 11 14 42 36 77 102 
100 123 113 5 82 84 122 93 105 43 
34 118 65 17 49 71 116 53 32 19 
125 56 83 117 78 45 3 106 74 60 
96 89 80 48 16 44 13 90 120 46 
35 25 108 10 2 111 70 54 27 30 
98 28 57 101 4 110 8 23 73 39 
37 95 72 26 103 24 121 51 33 50 
41 99 109 97 40 114 87 20 94 67 
18 61 91 22 7 1 
